% Logging successfully configured
%%%mzn-stat: initTime=0.009174268
%%%mzn-stat: objective=650
%%%mzn-stat: nodes=72
%%%mzn-stat: restarts=0
%%%mzn-stat: peakDepth=71
%%%mzn-stat: solveTime=0.000694494
%%%mzn-stat: variables=204
%%%mzn-stat: propagators=125
%%%mzn-stat: failures=1
%%%mzn-stat: propagations=449
%%%mzn-stat: nogoods=1
%%%mzn-stat: numAtomicConstraintsPropagated=0
%%%mzn-stat: circuitNumber1PropagationsTotal=26
%%%mzn-stat: circuitNumber1CircuitConflicts=0
%%%mzn-stat: circuitNumber1AlldiffConflicts=0
%%%mzn-stat: circuitNumber1TotalFixedEdgesAtConflict=0
%%%mzn-stat: circuitNumber1NumberOfConflicts=0
%%%mzn-stat: circuitNumber1GacPrunings=49
%%%mzn-stat: circuitNumber1PropagationsThatGacPruned=14
%%%mzn-stat: circuitNumber1TotalPruningHallSetSize=187
%%%mzn-stat: circuitNumber1NumberOfPruningExplanations=49
%%%mzn-stat: circuitNumber1MaxPruningHallSetSize=13
%%%mzn-stat: circuitNumber1TotalSccSizeAtPruning=85
%%%mzn-stat: circuitNumber1NumberOfSccPruningCalls=14
%%%mzn-stat: circuitNumber1TotalVarsInvolvedInPruning=40
%%%mzn-stat: circuitNumber1MaxValuesPrunedFromSingleVar=3
%%%mzn-stat: circuitNumber1HallCircuitChecks=23
%%%mzn-stat: circuitNumber1HallCircuitPrunings=3
%%%mzn-stat: circuitNumber1CircuitPreventPrunings=10
%%%mzn-stat: AverageConflictSize=2
%%%mzn-stat: NumUnitNogoodsLearned=0
%%%mzn-stat: AverageLearnedNogoodLength=9
%%%mzn-stat: AverageBacktrackAmount=0
%%%mzn-stat: AverageLbd=4
%%%mzn-stat: 2AutonomousSearchNumBackupCalled=61
%%%mzn-stat: 2AutonomousSearchNumPredicatesRemoved=0
%%%mzn-stat: 2AutonomousSearchNumCalls=62
%%%mzn-stat: 2AutonomousSearchNumPredicatesAdded=30
%%%mzn-stat: 2AutonomousSearchAverageSizeOfHeap=0.4838709677419355
%%%mzn-stat: 2AutonomousSearchNumAssignedPredicatesEncountered=30
%%%mzn-stat-end
maxleg = 650;
succ = array1d(1..20,[2, 5, 8, 14, 16, 9, 10, 6, 4, 12, 3, 13, 18, 19, 11, 17, 7, 20, 1, 15]);
% time elapsed: 5.84 s
----------
%%%mzn-stat: initTime=0.009174268
%%%mzn-stat: objective=605
%%%mzn-stat: nodes=142
%%%mzn-stat: restarts=0
%%%mzn-stat: peakDepth=71
%%%mzn-stat: solveTime=0.001203162
%%%mzn-stat: variables=204
%%%mzn-stat: propagators=125
%%%mzn-stat: failures=1
%%%mzn-stat: propagations=696
%%%mzn-stat: nogoods=1
%%%mzn-stat: numAtomicConstraintsPropagated=0
%%%mzn-stat: circuitNumber1PropagationsTotal=50
%%%mzn-stat: circuitNumber1CircuitConflicts=0
%%%mzn-stat: circuitNumber1AlldiffConflicts=0
%%%mzn-stat: circuitNumber1TotalFixedEdgesAtConflict=0
%%%mzn-stat: circuitNumber1NumberOfConflicts=0
%%%mzn-stat: circuitNumber1GacPrunings=82
%%%mzn-stat: circuitNumber1PropagationsThatGacPruned=26
%%%mzn-stat: circuitNumber1TotalPruningHallSetSize=290
%%%mzn-stat: circuitNumber1NumberOfPruningExplanations=82
%%%mzn-stat: circuitNumber1MaxPruningHallSetSize=13
%%%mzn-stat: circuitNumber1TotalSccSizeAtPruning=166
%%%mzn-stat: circuitNumber1NumberOfSccPruningCalls=26
%%%mzn-stat: circuitNumber1TotalVarsInvolvedInPruning=69
%%%mzn-stat: circuitNumber1MaxValuesPrunedFromSingleVar=3
%%%mzn-stat: circuitNumber1HallCircuitChecks=45
%%%mzn-stat: circuitNumber1HallCircuitPrunings=6
%%%mzn-stat: circuitNumber1CircuitPreventPrunings=20
%%%mzn-stat: AverageConflictSize=2
%%%mzn-stat: NumUnitNogoodsLearned=0
%%%mzn-stat: AverageLearnedNogoodLength=9
%%%mzn-stat: AverageBacktrackAmount=0
%%%mzn-stat: AverageLbd=4
%%%mzn-stat: 2AutonomousSearchNumBackupCalled=123
%%%mzn-stat: 2AutonomousSearchNumPredicatesRemoved=0
%%%mzn-stat: 2AutonomousSearchNumCalls=125
%%%mzn-stat: 2AutonomousSearchNumPredicatesAdded=30
%%%mzn-stat: 2AutonomousSearchAverageSizeOfHeap=0.48
%%%mzn-stat: 2AutonomousSearchNumAssignedPredicatesEncountered=60
%%%mzn-stat-end
maxleg = 605;
succ = array1d(1..20,[2, 5, 8, 14, 16, 9, 10, 6, 4, 12, 13, 11, 18, 19, 3, 17, 7, 20, 1, 15]);
% time elapsed: 5.84 s
----------
%%%mzn-stat: initTime=0.009174268
%%%mzn-stat: objective=488
%%%mzn-stat: nodes=240
%%%mzn-stat: restarts=0
%%%mzn-stat: peakDepth=71
%%%mzn-stat: solveTime=0.008307768
%%%mzn-stat: variables=204
%%%mzn-stat: propagators=125
%%%mzn-stat: failures=35
%%%mzn-stat: propagations=2140
%%%mzn-stat: nogoods=35
%%%mzn-stat: numAtomicConstraintsPropagated=0
%%%mzn-stat: circuitNumber1PropagationsTotal=281
%%%mzn-stat: circuitNumber1CircuitConflicts=18
%%%mzn-stat: circuitNumber1AlldiffConflicts=4
%%%mzn-stat: circuitNumber1TotalFixedEdgesAtConflict=285
%%%mzn-stat: circuitNumber1NumberOfConflicts=22
%%%mzn-stat: circuitNumber1GacPrunings=606
%%%mzn-stat: circuitNumber1PropagationsThatGacPruned=151
%%%mzn-stat: circuitNumber1TotalPruningHallSetSize=2808
%%%mzn-stat: circuitNumber1NumberOfPruningExplanations=606
%%%mzn-stat: circuitNumber1MaxPruningHallSetSize=18
%%%mzn-stat: circuitNumber1TotalSccSizeAtPruning=1598
%%%mzn-stat: circuitNumber1NumberOfSccPruningCalls=151
%%%mzn-stat: circuitNumber1TotalVarsInvolvedInPruning=466
%%%mzn-stat: circuitNumber1MaxValuesPrunedFromSingleVar=3
%%%mzn-stat: circuitNumber1HallCircuitChecks=291
%%%mzn-stat: circuitNumber1HallCircuitPrunings=24
%%%mzn-stat: circuitNumber1CircuitPreventPrunings=173
%%%mzn-stat: AverageConflictSize=6.628571428571429
%%%mzn-stat: NumUnitNogoodsLearned=0
%%%mzn-stat: AverageLearnedNogoodLength=8.742857142857142
%%%mzn-stat: AverageBacktrackAmount=0
%%%mzn-stat: AverageLbd=3.7714285714285714
%%%mzn-stat: 2AutonomousSearchNumBackupCalled=179
%%%mzn-stat: 2AutonomousSearchNumPredicatesRemoved=0
%%%mzn-stat: 2AutonomousSearchNumCalls=182
%%%mzn-stat: 2AutonomousSearchNumPredicatesAdded=562
%%%mzn-stat: 2AutonomousSearchAverageSizeOfHeap=3.2527472527472527
%%%mzn-stat: 2AutonomousSearchNumAssignedPredicatesEncountered=592
%%%mzn-stat-end
maxleg = 488;
succ = array1d(1..20,[5, 14, 8, 19, 16, 9, 10, 15, 20, 18, 3, 11, 12, 4, 6, 17, 7, 13, 1, 2]);
% time elapsed: 5.84 s
----------
%%%mzn-stat: initTime=0.009174268
%%%mzn-stat: objective=442
%%%mzn-stat: nodes=303
%%%mzn-stat: restarts=0
%%%mzn-stat: peakDepth=71
%%%mzn-stat: solveTime=0.008921395
%%%mzn-stat: variables=204
%%%mzn-stat: propagators=125
%%%mzn-stat: failures=35
%%%mzn-stat: propagations=2383
%%%mzn-stat: nogoods=35
%%%mzn-stat: numAtomicConstraintsPropagated=0
%%%mzn-stat: circuitNumber1PropagationsTotal=302
%%%mzn-stat: circuitNumber1CircuitConflicts=18
%%%mzn-stat: circuitNumber1AlldiffConflicts=4
%%%mzn-stat: circuitNumber1TotalFixedEdgesAtConflict=285
%%%mzn-stat: circuitNumber1NumberOfConflicts=22
%%%mzn-stat: circuitNumber1GacPrunings=633
%%%mzn-stat: circuitNumber1PropagationsThatGacPruned=162
%%%mzn-stat: circuitNumber1TotalPruningHallSetSize=2901
%%%mzn-stat: circuitNumber1NumberOfPruningExplanations=633
%%%mzn-stat: circuitNumber1MaxPruningHallSetSize=18
%%%mzn-stat: circuitNumber1TotalSccSizeAtPruning=1651
%%%mzn-stat: circuitNumber1NumberOfSccPruningCalls=162
%%%mzn-stat: circuitNumber1TotalVarsInvolvedInPruning=491
%%%mzn-stat: circuitNumber1MaxValuesPrunedFromSingleVar=3
%%%mzn-stat: circuitNumber1HallCircuitChecks=314
%%%mzn-stat: circuitNumber1HallCircuitPrunings=25
%%%mzn-stat: circuitNumber1CircuitPreventPrunings=183
%%%mzn-stat: AverageConflictSize=6.628571428571429
%%%mzn-stat: NumUnitNogoodsLearned=0
%%%mzn-stat: AverageLearnedNogoodLength=8.742857142857142
%%%mzn-stat: AverageBacktrackAmount=0
%%%mzn-stat: AverageLbd=3.7714285714285714
%%%mzn-stat: 2AutonomousSearchNumBackupCalled=234
%%%mzn-stat: 2AutonomousSearchNumPredicatesRemoved=0
%%%mzn-stat: 2AutonomousSearchNumCalls=238
%%%mzn-stat: 2AutonomousSearchNumPredicatesAdded=562
%%%mzn-stat: 2AutonomousSearchAverageSizeOfHeap=4.722689075630252
%%%mzn-stat: 2AutonomousSearchNumAssignedPredicatesEncountered=1124
%%%mzn-stat-end
maxleg = 442;
succ = array1d(1..20,[5, 14, 8, 19, 16, 9, 18, 15, 20, 12, 3, 11, 10, 4, 6, 17, 7, 13, 1, 2]);
% time elapsed: 5.84 s
----------
%%%mzn-stat: initTime=0.009174268
%%%mzn-stat: objective=357
%%%mzn-stat: nodes=360
%%%mzn-stat: restarts=0
%%%mzn-stat: peakDepth=71
%%%mzn-stat: solveTime=0.009438456
%%%mzn-stat: variables=204
%%%mzn-stat: propagators=125
%%%mzn-stat: failures=35
%%%mzn-stat: propagations=2620
%%%mzn-stat: nogoods=35
%%%mzn-stat: numAtomicConstraintsPropagated=0
%%%mzn-stat: circuitNumber1PropagationsTotal=318
%%%mzn-stat: circuitNumber1CircuitConflicts=18
%%%mzn-stat: circuitNumber1AlldiffConflicts=4
%%%mzn-stat: circuitNumber1TotalFixedEdgesAtConflict=285
%%%mzn-stat: circuitNumber1NumberOfConflicts=22
%%%mzn-stat: circuitNumber1GacPrunings=661
%%%mzn-stat: circuitNumber1PropagationsThatGacPruned=170
%%%mzn-stat: circuitNumber1TotalPruningHallSetSize=3010
%%%mzn-stat: circuitNumber1NumberOfPruningExplanations=661
%%%mzn-stat: circuitNumber1MaxPruningHallSetSize=18
%%%mzn-stat: circuitNumber1TotalSccSizeAtPruning=1697
%%%mzn-stat: circuitNumber1NumberOfSccPruningCalls=170
%%%mzn-stat: circuitNumber1TotalVarsInvolvedInPruning=514
%%%mzn-stat: circuitNumber1MaxValuesPrunedFromSingleVar=3
%%%mzn-stat: circuitNumber1HallCircuitChecks=333
%%%mzn-stat: circuitNumber1HallCircuitPrunings=26
%%%mzn-stat: circuitNumber1CircuitPreventPrunings=193
%%%mzn-stat: AverageConflictSize=6.628571428571429
%%%mzn-stat: NumUnitNogoodsLearned=0
%%%mzn-stat: AverageLearnedNogoodLength=8.742857142857142
%%%mzn-stat: AverageBacktrackAmount=0
%%%mzn-stat: AverageLbd=3.7714285714285714
%%%mzn-stat: 2AutonomousSearchNumBackupCalled=286
%%%mzn-stat: 2AutonomousSearchNumPredicatesRemoved=0
%%%mzn-stat: 2AutonomousSearchNumCalls=291
%%%mzn-stat: 2AutonomousSearchNumPredicatesAdded=562
%%%mzn-stat: 2AutonomousSearchAverageSizeOfHeap=5.690721649484536
%%%mzn-stat: 2AutonomousSearchNumAssignedPredicatesEncountered=1656
%%%mzn-stat-end
maxleg = 357;
succ = array1d(1..20,[5, 14, 8, 19, 16, 9, 18, 15, 20, 13, 12, 3, 11, 4, 6, 17, 7, 10, 1, 2]);
% time elapsed: 5.84 s
----------
==========
% time elapsed: 5.84 s
%%%mzn-stat: initTime=0.009174268
%%%mzn-stat: objective=357
%%%mzn-stat: nodes=360
%%%mzn-stat: restarts=0
%%%mzn-stat: peakDepth=71
%%%mzn-stat: solveTime=0.009546324
%%%mzn-stat: variables=204
%%%mzn-stat: propagators=125
%%%mzn-stat: failures=36
%%%mzn-stat: propagations=2656
%%%mzn-stat: nogoods=36
%%%mzn-stat: numAtomicConstraintsPropagated=0
%%%mzn-stat: circuitNumber1PropagationsTotal=319
%%%mzn-stat: circuitNumber1CircuitConflicts=18
%%%mzn-stat: circuitNumber1AlldiffConflicts=4
%%%mzn-stat: circuitNumber1TotalFixedEdgesAtConflict=285
%%%mzn-stat: circuitNumber1NumberOfConflicts=22
%%%mzn-stat: circuitNumber1GacPrunings=665
%%%mzn-stat: circuitNumber1PropagationsThatGacPruned=171
%%%mzn-stat: circuitNumber1TotalPruningHallSetSize=3050
%%%mzn-stat: circuitNumber1NumberOfPruningExplanations=665
%%%mzn-stat: circuitNumber1MaxPruningHallSetSize=19
%%%mzn-stat: circuitNumber1TotalSccSizeAtPruning=1734
%%%mzn-stat: circuitNumber1NumberOfSccPruningCalls=171
%%%mzn-stat: circuitNumber1TotalVarsInvolvedInPruning=517
%%%mzn-stat: circuitNumber1MaxValuesPrunedFromSingleVar=3
%%%mzn-stat: circuitNumber1HallCircuitChecks=334
%%%mzn-stat: circuitNumber1HallCircuitPrunings=26
%%%mzn-stat: circuitNumber1CircuitPreventPrunings=194
%%%mzn-stat: AverageConflictSize=6.5
%%%mzn-stat: NumUnitNogoodsLearned=1
%%%mzn-stat: AverageLearnedNogoodLength=8.527777777777779
%%%mzn-stat: AverageBacktrackAmount=0
%%%mzn-stat: AverageLbd=3.6944444444444446
%%%mzn-stat: 2AutonomousSearchNumBackupCalled=286
%%%mzn-stat: 2AutonomousSearchNumPredicatesRemoved=0
%%%mzn-stat: 2AutonomousSearchNumCalls=291
%%%mzn-stat: 2AutonomousSearchNumPredicatesAdded=652
%%%mzn-stat: 2AutonomousSearchAverageSizeOfHeap=5.690721649484536
%%%mzn-stat: 2AutonomousSearchNumAssignedPredicatesEncountered=1656
%%%mzn-stat-end
